HUN,8,6,587
2,21,0,23,1,9,3,4,5,27,4,1
2,28,0,9,1,17,3,16,4,25,5,24
0,12,2,9,1,20,4,2,5,29,3,10
1,24,0,8,2,25,5,6,3,2,4,2
2,13,1,30,0,26,4,16,3,1,5,1
1,23,2,14,0,29,5,8,4,25,3,22
1,9,0,16,2,15,3,9,5,1,4,23
2,27,1,7,0,3,4,28,3,10,5,5
